(declare-fun temp101122_1 () (_ BitVec 64))
(declare-fun temp101122_2 () (_ BitVec 64))
(declare-fun var77740 () (_ BitVec 64))
(declare-fun k!0 () Bool)
(declare-fun ARGNAME_input_1_NAMEEND_DIM () (_ BitVec 64))
(declare-fun ARGNAME_data_format_NAMEEND_STRFMT () (_ BitVec 64))
(declare-fun temp101122_3 () (_ BitVec 64))
(declare-fun ARGNAME_input_2_NAMEEND_DIM () (_ BitVec 64))
(declare-fun var77770 () (_ BitVec 64))
(declare-fun temp101122_4 () (_ BitVec 64))
(declare-fun temp101122_5 () (_ BitVec 64))
(declare-fun ARGNAME_input_1_NAMEEND_DIMSIZE
             ()
             (Array (_ BitVec 64) (_ BitVec 64)))
(declare-fun temp101122_6 () (_ BitVec 64))
(declare-fun temp101122_7 () (_ BitVec 64))
(declare-fun temp101122_8 () (_ BitVec 64))
(declare-fun temp101122_9 () (_ BitVec 64))
(declare-fun temp101122_10 () (_ BitVec 64))
(declare-fun temp101122_11 () (_ BitVec 64))
(declare-fun temp101122_12 () (_ BitVec 64))
(declare-fun temp101122_13 () (_ BitVec 64))
(declare-fun temp101122_14 () (_ BitVec 64))
(declare-fun temp101122_15 () (_ BitVec 64))
(declare-fun temp101122_16 () (_ BitVec 64))
(declare-fun temp101122_17 () (_ BitVec 64))
(declare-fun temp101122_18 () (_ BitVec 64))
(declare-fun var77799 () (_ BitVec 64))
(declare-fun temp101122_19 () (_ BitVec 64))
(declare-fun ARGNAME_input_2_NAMEEND_DIMSIZE
             ()
             (Array (_ BitVec 64) (_ BitVec 64)))
(declare-fun temp101122_20 () (_ BitVec 64))
(declare-fun temp101122_21 () (_ BitVec 64))
(declare-fun temp101122_22 () (_ BitVec 64))
(declare-fun temp101122_23 () (_ BitVec 64))
(declare-fun temp101122_24 () (_ BitVec 64))
(declare-fun temp101122_25 () (_ BitVec 64))
(declare-fun temp101122_26 () (_ BitVec 64))
(declare-fun temp101122_27 () (_ BitVec 64))
(declare-fun temp101122_28 () (_ BitVec 64))
(declare-fun temp101122_29 () (_ BitVec 64))
(declare-fun temp101122_30 () (_ BitVec 64))
(declare-fun temp101122_31 () (_ BitVec 64))
(declare-fun temp101122_32 () (_ BitVec 64))
(declare-fun var77832 () (_ BitVec 64))
(declare-fun temp101122_33 () (_ BitVec 64))
(declare-fun temp101122_34 () (_ BitVec 64))
(declare-fun var77833 () (_ BitVec 64))
(declare-fun var77834 () (_ BitVec 64))
(declare-fun temp101122_35 () (_ BitVec 64))
(declare-fun temp101122_36 () (_ BitVec 64))
(declare-fun var275510 () (_ BitVec 64))
(declare-fun temp101122_37 () (_ BitVec 64))
(declare-fun var275528 () (_ BitVec 64))
(declare-fun temp101122_38 () (_ BitVec 64))
(declare-fun temp101122_40 () (_ BitVec 64))
(declare-fun temp101122_39 () (_ BitVec 64))
(declare-fun temp101122_41 () (_ BitVec 64))
(declare-fun var472118 () (_ BitVec 64))
(declare-fun temp101122_42 () (_ BitVec 64))
(declare-fun var472136 () (_ BitVec 64))
(declare-fun temp101122_43 () (_ BitVec 64))
(declare-fun temp101122_45 () (_ BitVec 64))
(declare-fun temp101122_44 () (_ BitVec 64))
(declare-fun temp101122_46 () (_ BitVec 64))
(declare-fun var668726 () (_ BitVec 64))
(declare-fun temp101122_47 () (_ BitVec 64))
(declare-fun var668744 () (_ BitVec 64))
(declare-fun temp101122_48 () (_ BitVec 64))
(declare-fun temp101122_50 () (_ BitVec 64))
(declare-fun temp101122_49 () (_ BitVec 64))
(declare-fun temp101122_52 () (_ BitVec 64))
(declare-fun temp101122_51 () (_ BitVec 64))
(declare-fun temp101122_54 () (_ BitVec 64))
(declare-fun temp101122_53 () (_ BitVec 64))
(declare-fun temp101122_55 () (_ BitVec 64))
(declare-fun var926795 () (_ BitVec 64))
(declare-fun var926774 () (_ BitVec 64))
(declare-fun var795680 () (_ BitVec 64))
(declare-fun temp101122_56 () (_ BitVec 64))
(declare-fun temp101122_58 () (_ BitVec 64))
(declare-fun temp101122_57 () (_ BitVec 64))
(declare-fun temp101122_60 () (_ BitVec 64))
(declare-fun temp101122_59 () (_ BitVec 64))
(declare-fun temp101122_62 () (_ BitVec 64))
(declare-fun temp101122_61 () (_ BitVec 64))
(declare-fun temp101122_63 () (_ BitVec 64))
(declare-fun var1123378 () (_ BitVec 64))
(declare-fun temp101122_64 () (_ BitVec 64))
(declare-fun var1123379 () (_ BitVec 64))
(declare-fun var1123380 () (_ BitVec 64))
(declare-fun var1123376 () (_ BitVec 64))
(declare-fun var730076 () (_ BitVec 64))
(declare-fun temp101122_65 () (_ BitVec 64))
(declare-fun var1188914 () (_ BitVec 64))
(declare-fun temp101122_66 () (_ BitVec 64))
(declare-fun var1188915 () (_ BitVec 64))
(declare-fun var1188916 () (_ BitVec 64))
(declare-fun var1188912 () (_ BitVec 64))
(declare-fun var730083 () (_ BitVec 64))
(declare-fun temp101122_67 () (_ BitVec 64))
(declare-fun var1254450 () (_ BitVec 64))
(declare-fun temp101122_68 () (_ BitVec 64))
(declare-fun var1254451 () (_ BitVec 64))
(declare-fun var1254452 () (_ BitVec 64))
(declare-fun var1254448 () (_ BitVec 64))
(declare-fun var730088 () (_ BitVec 64))
(declare-fun var78095 () (_ BitVec 64))
(declare-fun temp101122_69 () (_ BitVec 64))
(declare-fun temp101122_70 () (_ BitVec 64))
(declare-fun var78184 () (_ BitVec 64))
(declare-fun temp101122_72 () (_ BitVec 64))
(declare-fun temp101122_71 () (_ BitVec 64))
(declare-fun temp101122_74 () (_ BitVec 64))
(declare-fun temp101122_73 () (_ BitVec 64))
(declare-fun temp101122_75 () (_ BitVec 64))
(declare-fun var78544 () (_ BitVec 64))
(declare-fun temp101122_76 () (_ BitVec 64))
(declare-fun var78545 () (_ BitVec 64))
(assert (or (= ARGNAME_data_format_NAMEEND_STRFMT #x0000000000000000)
    (= ARGNAME_data_format_NAMEEND_STRFMT #x0000000000000001)
    (= ARGNAME_data_format_NAMEEND_STRFMT #x0000000000000002)
    (= ARGNAME_data_format_NAMEEND_STRFMT #x0000000000000003)
    (= ARGNAME_data_format_NAMEEND_STRFMT #x0000000000000004)
    (= ARGNAME_data_format_NAMEEND_STRFMT #x0000000000000005)))
(assert (= temp101122_1 #x0000000000000005))
(assert (= var77740
   (ite (= ARGNAME_input_1_NAMEEND_DIM temp101122_1)
        #x0000000000000001
        #x0000000000000000)))
(assert (= temp101122_2 #x0000000000000001))
(assert (= var77740 temp101122_2))
(assert (= temp101122_3 #x0000000000000005))
(assert (= var77770
   (ite (= ARGNAME_input_2_NAMEEND_DIM temp101122_3)
        #x0000000000000001
        #x0000000000000000)))
(assert (= temp101122_4 #x0000000000000001))
(assert (= var77770 temp101122_4))
(assert (= temp101122_5 #x0000000000000000))
(assert (= temp101122_6 (select ARGNAME_input_1_NAMEEND_DIMSIZE temp101122_5)))
(assert (= temp101122_7 #x0000000000000001))
(assert (= temp101122_8 (select ARGNAME_input_1_NAMEEND_DIMSIZE temp101122_7)))
(assert (= temp101122_9 #x0000000000000002))
(assert (= temp101122_10 (select ARGNAME_input_1_NAMEEND_DIMSIZE temp101122_9)))
(assert (= temp101122_11 #x0000000000000003))
(assert (= temp101122_12 (select ARGNAME_input_1_NAMEEND_DIMSIZE temp101122_11)))
(assert (= temp101122_13 #x0000000000000004))
(assert (= temp101122_14 (select ARGNAME_input_1_NAMEEND_DIMSIZE temp101122_13)))
(assert (= temp101122_15 #x0000000000000005))
(assert (= temp101122_16 (select ARGNAME_input_1_NAMEEND_DIMSIZE temp101122_15)))
(assert (= temp101122_17 #x0000000000000003))
(assert (= temp101122_18 (select ARGNAME_input_1_NAMEEND_DIMSIZE temp101122_17)))
(assert (= var77799 temp101122_18))
(assert (= temp101122_19 #x0000000000000000))
(assert (= temp101122_20 (select ARGNAME_input_2_NAMEEND_DIMSIZE temp101122_19)))
(assert (= temp101122_21 #x0000000000000001))
(assert (= temp101122_22 (select ARGNAME_input_2_NAMEEND_DIMSIZE temp101122_21)))
(assert (= temp101122_23 #x0000000000000002))
(assert (= temp101122_24 (select ARGNAME_input_2_NAMEEND_DIMSIZE temp101122_23)))
(assert (= temp101122_25 #x0000000000000003))
(assert (= temp101122_26 (select ARGNAME_input_2_NAMEEND_DIMSIZE temp101122_25)))
(assert (= temp101122_27 #x0000000000000004))
(assert (= temp101122_28 (select ARGNAME_input_2_NAMEEND_DIMSIZE temp101122_27)))
(assert (= temp101122_29 #x0000000000000005))
(assert (= temp101122_30 (select ARGNAME_input_2_NAMEEND_DIMSIZE temp101122_29)))
(assert (= temp101122_31 #x0000000000000004))
(assert (= temp101122_32 (select ARGNAME_input_2_NAMEEND_DIMSIZE temp101122_31)))
(assert (= var77832 temp101122_32))
(assert (= temp101122_33 #x0000000000000004))
(assert (= temp101122_34 (select ARGNAME_input_1_NAMEEND_DIMSIZE temp101122_33)))
(assert (= var77833 temp101122_34))
(assert (= var77834 (ite (= var77832 var77833) #x0000000000000001 #x0000000000000000)))
(assert (= temp101122_35 #x0000000000000001))
(assert (= var77834 temp101122_35))
(assert (= temp101122_36 #x0000000000000001))
(assert (= var275510 temp101122_36))
(assert (= temp101122_37 #x0000000000000001))
(assert (= var275528
   (ite (bvslt var275510 temp101122_37) #x0000000000000001 #x0000000000000000)))
(assert (= temp101122_38 #x0000000000000000))
(assert (= var275528 temp101122_38))
(assert (= temp101122_40 #x0000000000000000))
(assert (= temp101122_39 temp101122_40))
(assert (= temp101122_41 #x0000000000000001))
(assert (= var472118 temp101122_41))
(assert (= temp101122_42 #x0000000000000001))
(assert (= var472136
   (ite (bvslt var472118 temp101122_42) #x0000000000000001 #x0000000000000000)))
(assert (= temp101122_43 #x0000000000000000))
(assert (= var472136 temp101122_43))
(assert (= temp101122_45 #x0000000000000000))
(assert (= temp101122_44 temp101122_45))
(assert (= temp101122_46 #x0000000000000001))
(assert (= var668726 temp101122_46))
(assert (= temp101122_47 #x0000000000000001))
(assert (= var668744
   (ite (bvslt var668726 temp101122_47) #x0000000000000001 #x0000000000000000)))
(assert (= temp101122_48 #x0000000000000000))
(assert (= var668744 temp101122_48))
(assert (= temp101122_50 #x00000000000000ff))
(assert (= temp101122_49 temp101122_50))
(assert (= temp101122_52 #x00000000000000ff))
(assert (= temp101122_51 temp101122_52))
(assert (= temp101122_54 #x00000000000000ff))
(assert (= temp101122_53 temp101122_54))
(assert (= temp101122_55 #x0000000000000000))
(assert (= var926795 temp101122_55))
(assert (= var926774 var926795))
(assert (= var795680 var926774))
(assert (= temp101122_56 #x0000000000000000))
(assert (= var795680 temp101122_56))
(assert (= temp101122_58 #x0000000000000000))
(assert (= temp101122_57 temp101122_58))
(assert (= temp101122_60 #x0000000000000000))
(assert (= temp101122_59 temp101122_60))
(assert (= temp101122_62 #x0000000000000000))
(assert (= temp101122_61 temp101122_62))
(assert (= temp101122_63 #x0000000000008000))
(assert (= var1123378 temp101122_63))
(assert (= temp101122_64 #x0000000000000001))
(assert (= var1123379
   (ite (bvslt temp101122_61 temp101122_64)
        #x0000000000000001
        #x0000000000000000)))
(assert (= var1123380 (ite (= var1123379 #x0000000000000001) var1123378 temp101122_61)))
(assert (= var1123376 var1123380))
(assert (= var730076 var1123376))
(assert (= temp101122_65 #x0000000000040000))
(assert (= var1188914 temp101122_65))
(assert (= temp101122_66 #x0000000000000001))
(assert (= var1188915
   (ite (bvslt temp101122_59 temp101122_66)
        #x0000000000000001
        #x0000000000000000)))
(assert (= var1188916 (ite (= var1188915 #x0000000000000001) var1188914 temp101122_59)))
(assert (= var1188912 var1188916))
(assert (= var730083 var1188912))
(assert (= temp101122_67 #x0000000000200000))
(assert (= var1254450 temp101122_67))
(assert (= temp101122_68 #x0000000000000001))
(assert (= var1254451
   (ite (bvslt temp101122_57 temp101122_68)
        #x0000000000000001
        #x0000000000000000)))
(assert (= var1254452 (ite (= var1254451 #x0000000000000001) var1254450 temp101122_57)))
(assert (= var1254448 var1254452))
(assert (= var730088 var1254448))
(assert (= var78095 var730088))
(assert (= temp101122_69 #x0000000000000003))
(assert (= temp101122_70 #x0000000000000001))
(assert (= var78184 temp101122_70))
(assert (= temp101122_72 #x0000000000000001))
(assert (= temp101122_71 temp101122_72))
(assert (= temp101122_74 #x0000000000000001))
(assert (= temp101122_73 temp101122_74))
(assert (= temp101122_75 #x0000000000000000))
(assert (= var78544 temp101122_75))
(assert (= temp101122_76 #x0000000000000001))
(assert (= var78545 (bvadd var78544 temp101122_76)))
(model-add temp101122_1 () (_ BitVec 64) #x0000000000000005)
(model-add temp101122_2 () (_ BitVec 64) #x0000000000000001)
(model-add var77740 () (_ BitVec 64) #x0000000000000001)
(model-del k!0)
(model-add ARGNAME_input_1_NAMEEND_DIM
           ()
           (_ BitVec 64)
           (ite k!0 #x0000000000000005 (bvnot #x0000000000000005)))

